# Objective value = 14104.01
I_0_0 5521
I_0_1 6979
I_0_2 5985
I_0_3 8078
I_1_0 32
I_1_1 32
I_1_2 32
I_1_3 0
I_2_0 180
I_2_1 90
I_2_2 180
I_2_3 90
I_3_0 56
I_3_1 0
I_3_2 56
I_3_3 0
I_4_0 56
I_4_1 56
I_4_2 56
I_4_3 0
I_5_0 94
I_5_1 94
I_5_2 47
I_5_3 0
I_6_0 39
I_6_1 0
I_6_2 39
I_6_3 0
I_7_0 104
I_7_1 104
I_7_2 52
I_7_3 0
I_8_0 168
I_8_1 168
I_8_2 84
I_8_3 0
I_9_0 25
I_9_1 0
I_9_2 25
I_9_3 0
I_10_0 22
I_10_1 22
I_10_2 11
I_10_3 0
I_11_0 130
I_11_1 130
I_11_2 65
I_11_3 0
I_12_0 81
I_12_1 0
I_12_2 81
I_12_3 0
I_13_0 92
I_13_1 0
I_13_2 92
I_13_3 0
I_14_0 128
I_14_1 128
I_14_2 128
I_14_3 64
I_15_0 36
I_15_1 36
I_15_2 18
I_15_3 0
I_16_0 110
I_16_1 110
I_16_2 55
I_16_3 0
I_17_0 158
I_17_1 79
I_17_2 158
I_17_3 79
I_18_0 90
I_18_1 45
I_18_2 90
I_18_3 45
I_19_0 20
I_19_1 10
I_19_2 20
I_19_3 10
I_20_0 108
I_20_1 54
I_20_2 108
I_20_3 54
I_21_0 36
I_21_1 18
I_21_2 36
I_21_3 18
I_22_0 38
I_22_1 0
I_22_2 38
I_22_3 0
I_23_0 19
I_23_1 19
I_23_2 19
I_23_3 0
I_24_0 68
I_24_1 0
I_24_2 68
I_24_3 0
I_25_0 43
I_25_1 0
I_25_2 43
I_25_3 0
I_26_0 132
I_26_1 66
I_26_2 132
I_26_3 66
I_27_0 146
I_27_1 146
I_27_2 73
I_27_3 0
I_28_0 57
I_28_1 0
I_28_2 57
I_28_3 0
I_29_0 148
I_29_1 74
I_29_2 148
I_29_3 74
I_30_0 118
I_30_1 118
I_30_2 59
I_30_3 0
I_31_0 56
I_31_1 0
I_31_2 56
I_31_3 0
I_32_0 76
I_32_1 38
I_32_2 76
I_32_3 38
I_33_0 82
I_33_1 41
I_33_2 82
I_33_3 41
I_34_0 23
I_34_1 0
I_34_2 23
I_34_3 0
I_35_0 120
I_35_1 60
I_35_2 120
I_35_3 60
I_36_0 58
I_36_1 0
I_36_2 58
I_36_3 0
I_37_0 15
I_37_1 0
I_37_2 15
I_37_3 0
I_38_0 176
I_38_1 88
I_38_2 176
I_38_3 88
I_39_0 174
I_39_1 87
I_39_2 174
I_39_3 87
I_40_0 114
I_40_1 57
I_40_2 114
I_40_3 57
q_1_0 32
q_1_1 32
q_1_2 0
q_2_0 0
q_2_1 180
q_2_2 0
q_3_0 0
q_3_1 112
q_3_2 0
q_4_0 56
q_4_1 56
q_4_2 0
q_5_0 47
q_5_1 0
q_5_2 0
q_6_0 0
q_6_1 78
q_6_2 0
q_7_0 52
q_7_1 0
q_7_2 0
q_8_0 84
q_8_1 0
q_8_2 0
q_9_0 0
q_9_1 50
q_9_2 0
q_10_0 11
q_10_1 0
q_10_2 0
q_11_0 65
q_11_1 0
q_11_2 0
q_12_0 0
q_12_1 162
q_12_2 0
q_13_0 0
q_13_1 184
q_13_2 0
q_14_0 64
q_14_1 64
q_14_2 0
q_15_0 18
q_15_1 0
q_15_2 0
q_16_0 55
q_16_1 0
q_16_2 0
q_17_0 0
q_17_1 158
q_17_2 0
q_18_0 0
q_18_1 90
q_18_2 0
q_19_0 0
q_19_1 20
q_19_2 0
q_20_0 0
q_20_1 108
q_20_2 0
q_21_0 0
q_21_1 36
q_21_2 0
q_22_0 0
q_22_1 76
q_22_2 0
q_23_0 19
q_23_1 19
q_23_2 0
q_24_0 0
q_24_1 136
q_24_2 0
q_25_0 0
q_25_1 86
q_25_2 0
q_26_0 0
q_26_1 132
q_26_2 0
q_27_0 73
q_27_1 0
q_27_2 0
q_28_0 0
q_28_1 114
q_28_2 0
q_29_0 0
q_29_1 148
q_29_2 0
q_30_0 59
q_30_1 0
q_30_2 0
q_31_0 0
q_31_1 112
q_31_2 0
q_32_0 0
q_32_1 76
q_32_2 0
q_33_0 0
q_33_1 82
q_33_2 0
q_34_0 0
q_34_1 46
q_34_2 0
q_35_0 0
q_35_1 120
q_35_2 0
q_36_0 0
q_36_1 116
q_36_2 0
q_37_0 0
q_37_1 30
q_37_2 0
q_38_0 0
q_38_1 176
q_38_2 0
q_39_0 0
q_39_1 174
q_39_2 0
q_40_0 0
q_40_1 114
q_40_2 0
y_0_0 1
y_0_1 1
y_0_2 0
y_1_0 1
y_1_1 1
y_1_2 0
y_2_0 0
y_2_1 1
y_2_2 0
y_3_0 0
y_3_1 1
y_3_2 0
y_4_0 1
y_4_1 1
y_4_2 0
y_5_0 1
y_5_1 0
y_5_2 0
y_6_0 0
y_6_1 1
y_6_2 0
y_7_0 1
y_7_1 0
y_7_2 0
y_8_0 1
y_8_1 0
y_8_2 0
y_9_0 0
y_9_1 1
y_9_2 0
y_10_0 1
y_10_1 0
y_10_2 0
y_11_0 1
y_11_1 0
y_11_2 0
y_12_0 0
y_12_1 1
y_12_2 0
y_13_0 0
y_13_1 1
y_13_2 0
y_14_0 1
y_14_1 1
y_14_2 0
y_15_0 1
y_15_1 0
y_15_2 0
y_16_0 1
y_16_1 0
y_16_2 0
y_17_0 0
y_17_1 1
y_17_2 0
y_18_0 0
y_18_1 1
y_18_2 0
y_19_0 0
y_19_1 1
y_19_2 0
y_20_0 0
y_20_1 1
y_20_2 0
y_21_0 0
y_21_1 1
y_21_2 0
y_22_0 0
y_22_1 1
y_22_2 0
y_23_0 1
y_23_1 1
y_23_2 0
y_24_0 0
y_24_1 1
y_24_2 0
y_25_0 0
y_25_1 1
y_25_2 0
y_26_0 0
y_26_1 1
y_26_2 0
y_27_0 1
y_27_1 0
y_27_2 0
y_28_0 0
y_28_1 1
y_28_2 0
y_29_0 0
y_29_1 1
y_29_2 0
y_30_0 1
y_30_1 0
y_30_2 0
y_31_0 0
y_31_1 1
y_31_2 0
y_32_0 0
y_32_1 1
y_32_2 0
y_33_0 0
y_33_1 1
y_33_2 0
y_34_0 0
y_34_1 1
y_34_2 0
y_35_0 0
y_35_1 1
y_35_2 0
y_36_0 0
y_36_1 1
y_36_2 0
y_37_0 0
y_37_1 1
y_37_2 0
y_38_0 0
y_38_1 1
y_38_2 0
y_39_0 0
y_39_1 1
y_39_2 0
y_40_0 0
y_40_1 1
y_40_2 0
x_0_1_0 1
x_0_1_1 1
x_0_1_2 0
x_0_2_0 0
x_0_2_1 0
x_0_2_2 0
x_0_3_0 0
x_0_3_1 1
x_0_3_2 0
x_0_4_0 1
x_0_4_1 0
x_0_4_2 0
x_0_5_0 0
x_0_5_1 0
x_0_5_2 0
x_0_6_0 0
x_0_6_1 0
x_0_6_2 0
x_0_7_0 0
x_0_7_1 0
x_0_7_2 0
x_0_8_0 0
x_0_8_1 0
x_0_8_2 0
x_0_9_0 0
x_0_9_1 0
x_0_9_2 0
x_0_10_0 0
x_0_10_1 0
x_0_10_2 0
x_0_11_0 0
x_0_11_1 0
x_0_11_2 0
x_0_12_0 0
x_0_12_1 0
x_0_12_2 0
x_0_13_0 0
x_0_13_1 0
x_0_13_2 0
x_0_14_0 0
x_0_14_1 0
x_0_14_2 0
x_0_15_0 0
x_0_15_1 0
x_0_15_2 0
x_0_16_0 0
x_0_16_1 0
x_0_16_2 0
x_0_17_0 0
x_0_17_1 0
x_0_17_2 0
x_0_18_0 0
x_0_18_1 0
x_0_18_2 0
x_0_19_0 0
x_0_19_1 0
x_0_19_2 0
x_0_20_0 0
x_0_20_1 0
x_0_20_2 0
x_0_21_0 0
x_0_21_1 0
x_0_21_2 0
x_0_22_0 0
x_0_22_1 0
x_0_22_2 0
x_0_23_0 0
x_0_23_1 0
x_0_23_2 0
x_0_24_0 0
x_0_24_1 0
x_0_24_2 0
x_0_25_0 0
x_0_25_1 0
x_0_25_2 0
x_0_26_0 0
x_0_26_1 0
x_0_26_2 0
x_0_27_0 0
x_0_27_1 0
x_0_27_2 0
x_0_28_0 0
x_0_28_1 0
x_0_28_2 0
x_0_29_0 0
x_0_29_1 0
x_0_29_2 0
x_0_30_0 0
x_0_30_1 0
x_0_30_2 0
x_0_31_0 0
x_0_31_1 0
x_0_31_2 0
x_0_32_0 0
x_0_32_1 0
x_0_32_2 0
x_0_33_0 0
x_0_33_1 0
x_0_33_2 0
x_0_34_0 0
x_0_34_1 0
x_0_34_2 0
x_0_35_0 0
x_0_35_1 0
x_0_35_2 0
x_0_36_0 0
x_0_36_1 0
x_0_36_2 0
x_0_37_0 0
x_0_37_1 0
x_0_37_2 0
x_0_38_0 0
x_0_38_1 0
x_0_38_2 0
x_0_39_0 0
x_0_39_1 0
x_0_39_2 0
x_0_40_0 0
x_0_40_1 0
x_0_40_2 0
x_1_2_0 0
x_1_2_1 0
x_1_2_2 0
x_1_3_0 0
x_1_3_1 0
x_1_3_2 0
x_1_4_0 0
x_1_4_1 1
x_1_4_2 0
x_1_5_0 0
x_1_5_1 0
x_1_5_2 0
x_1_6_0 0
x_1_6_1 0
x_1_6_2 0
x_1_7_0 0
x_1_7_1 0
x_1_7_2 0
x_1_8_0 1
x_1_8_1 0
x_1_8_2 0
x_1_9_0 0
x_1_9_1 0
x_1_9_2 0
x_1_10_0 0
x_1_10_1 0
x_1_10_2 0
x_1_11_0 0
x_1_11_1 0
x_1_11_2 0
x_1_12_0 0
x_1_12_1 0
x_1_12_2 0
x_1_13_0 0
x_1_13_1 0
x_1_13_2 0
x_1_14_0 0
x_1_14_1 0
x_1_14_2 0
x_1_15_0 0
x_1_15_1 0
x_1_15_2 0
x_1_16_0 0
x_1_16_1 0
x_1_16_2 0
x_1_17_0 0
x_1_17_1 0
x_1_17_2 0
x_1_18_0 0
x_1_18_1 0
x_1_18_2 0
x_1_19_0 0
x_1_19_1 0
x_1_19_2 0
x_1_20_0 0
x_1_20_1 0
x_1_20_2 0
x_1_21_0 0
x_1_21_1 0
x_1_21_2 0
x_1_22_0 0
x_1_22_1 0
x_1_22_2 0
x_1_23_0 0
x_1_23_1 0
x_1_23_2 0
x_1_24_0 0
x_1_24_1 0
x_1_24_2 0
x_1_25_0 0
x_1_25_1 0
x_1_25_2 0
x_1_26_0 0
x_1_26_1 0
x_1_26_2 0
x_1_27_0 0
x_1_27_1 0
x_1_27_2 0
x_1_28_0 0
x_1_28_1 0
x_1_28_2 0
x_1_29_0 0
x_1_29_1 0
x_1_29_2 0
x_1_30_0 0
x_1_30_1 0
x_1_30_2 0
x_1_31_0 0
x_1_31_1 0
x_1_31_2 0
x_1_32_0 0
x_1_32_1 0
x_1_32_2 0
x_1_33_0 0
x_1_33_1 0
x_1_33_2 0
x_1_34_0 0
x_1_34_1 0
x_1_34_2 0
x_1_35_0 0
x_1_35_1 0
x_1_35_2 0
x_1_36_0 0
x_1_36_1 0
x_1_36_2 0
x_1_37_0 0
x_1_37_1 0
x_1_37_2 0
x_1_38_0 0
x_1_38_1 0
x_1_38_2 0
x_1_39_0 0
x_1_39_1 0
x_1_39_2 0
x_1_40_0 0
x_1_40_1 0
x_1_40_2 0
x_2_3_0 0
x_2_3_1 1
x_2_3_2 0
x_2_4_0 0
x_2_4_1 0
x_2_4_2 0
x_2_5_0 0
x_2_5_1 0
x_2_5_2 0
x_2_6_0 0
x_2_6_1 0
x_2_6_2 0
x_2_7_0 0
x_2_7_1 0
x_2_7_2 0
x_2_8_0 0
x_2_8_1 0
x_2_8_2 0
x_2_9_0 0
x_2_9_1 0
x_2_9_2 0
x_2_10_0 0
x_2_10_1 0
x_2_10_2 0
x_2_11_0 0
x_2_11_1 0
x_2_11_2 0
x_2_12_0 0
x_2_12_1 1
x_2_12_2 0
x_2_13_0 0
x_2_13_1 0
x_2_13_2 0
x_2_14_0 0
x_2_14_1 0
x_2_14_2 0
x_2_15_0 0
x_2_15_1 0
x_2_15_2 0
x_2_16_0 0
x_2_16_1 0
x_2_16_2 0
x_2_17_0 0
x_2_17_1 0
x_2_17_2 0
x_2_18_0 0
x_2_18_1 0
x_2_18_2 0
x_2_19_0 0
x_2_19_1 0
x_2_19_2 0
x_2_20_0 0
x_2_20_1 0
x_2_20_2 0
x_2_21_0 0
x_2_21_1 0
x_2_21_2 0
x_2_22_0 0
x_2_22_1 0
x_2_22_2 0
x_2_23_0 0
x_2_23_1 0
x_2_23_2 0
x_2_24_0 0
x_2_24_1 0
x_2_24_2 0
x_2_25_0 0
x_2_25_1 0
x_2_25_2 0
x_2_26_0 0
x_2_26_1 0
x_2_26_2 0
x_2_27_0 0
x_2_27_1 0
x_2_27_2 0
x_2_28_0 0
x_2_28_1 0
x_2_28_2 0
x_2_29_0 0
x_2_29_1 0
x_2_29_2 0
x_2_30_0 0
x_2_30_1 0
x_2_30_2 0
x_2_31_0 0
x_2_31_1 0
x_2_31_2 0
x_2_32_0 0
x_2_32_1 0
x_2_32_2 0
x_2_33_0 0
x_2_33_1 0
x_2_33_2 0
x_2_34_0 0
x_2_34_1 0
x_2_34_2 0
x_2_35_0 0
x_2_35_1 0
x_2_35_2 0
x_2_36_0 0
x_2_36_1 0
x_2_36_2 0
x_2_37_0 0
x_2_37_1 0
x_2_37_2 0
x_2_38_0 0
x_2_38_1 0
x_2_38_2 0
x_2_39_0 0
x_2_39_1 0
x_2_39_2 0
x_2_40_0 0
x_2_40_1 0
x_2_40_2 0
x_3_4_0 0
x_3_4_1 0
x_3_4_2 0
x_3_5_0 0
x_3_5_1 0
x_3_5_2 0
x_3_6_0 0
x_3_6_1 0
x_3_6_2 0
x_3_7_0 0
x_3_7_1 0
x_3_7_2 0
x_3_8_0 0
x_3_8_1 0
x_3_8_2 0
x_3_9_0 0
x_3_9_1 0
x_3_9_2 0
x_3_10_0 0
x_3_10_1 0
x_3_10_2 0
x_3_11_0 0
x_3_11_1 0
x_3_11_2 0
x_3_12_0 0
x_3_12_1 0
x_3_12_2 0
x_3_13_0 0
x_3_13_1 0
x_3_13_2 0
x_3_14_0 0
x_3_14_1 0
x_3_14_2 0
x_3_15_0 0
x_3_15_1 0
x_3_15_2 0
x_3_16_0 0
x_3_16_1 0
x_3_16_2 0
x_3_17_0 0
x_3_17_1 0
x_3_17_2 0
x_3_18_0 0
x_3_18_1 0
x_3_18_2 0
x_3_19_0 0
x_3_19_1 0
x_3_19_2 0
x_3_20_0 0
x_3_20_1 0
x_3_20_2 0
x_3_21_0 0
x_3_21_1 0
x_3_21_2 0
x_3_22_0 0
x_3_22_1 0
x_3_22_2 0
x_3_23_0 0
x_3_23_1 0
x_3_23_2 0
x_3_24_0 0
x_3_24_1 0
x_3_24_2 0
x_3_25_0 0
x_3_25_1 0
x_3_25_2 0
x_3_26_0 0
x_3_26_1 0
x_3_26_2 0
x_3_27_0 0
x_3_27_1 0
x_3_27_2 0
x_3_28_0 0
x_3_28_1 0
x_3_28_2 0
x_3_29_0 0
x_3_29_1 0
x_3_29_2 0
x_3_30_0 0
x_3_30_1 0
x_3_30_2 0
x_3_31_0 0
x_3_31_1 0
x_3_31_2 0
x_3_32_0 0
x_3_32_1 0
x_3_32_2 0
x_3_33_0 0
x_3_33_1 0
x_3_33_2 0
x_3_34_0 0
x_3_34_1 0
x_3_34_2 0
x_3_35_0 0
x_3_35_1 0
x_3_35_2 0
x_3_36_0 0
x_3_36_1 0
x_3_36_2 0
x_3_37_0 0
x_3_37_1 0
x_3_37_2 0
x_3_38_0 0
x_3_38_1 0
x_3_38_2 0
x_3_39_0 0
x_3_39_1 0
x_3_39_2 0
x_3_40_0 0
x_3_40_1 0
x_3_40_2 0
x_4_5_0 1
x_4_5_1 0
x_4_5_2 0
x_4_6_0 0
x_4_6_1 1
x_4_6_2 0
x_4_7_0 0
x_4_7_1 0
x_4_7_2 0
x_4_8_0 0
x_4_8_1 0
x_4_8_2 0
x_4_9_0 0
x_4_9_1 0
x_4_9_2 0
x_4_10_0 0
x_4_10_1 0
x_4_10_2 0
x_4_11_0 0
x_4_11_1 0
x_4_11_2 0
x_4_12_0 0
x_4_12_1 0
x_4_12_2 0
x_4_13_0 0
x_4_13_1 0
x_4_13_2 0
x_4_14_0 0
x_4_14_1 0
x_4_14_2 0
x_4_15_0 0
x_4_15_1 0
x_4_15_2 0
x_4_16_0 0
x_4_16_1 0
x_4_16_2 0
x_4_17_0 0
x_4_17_1 0
x_4_17_2 0
x_4_18_0 0
x_4_18_1 0
x_4_18_2 0
x_4_19_0 0
x_4_19_1 0
x_4_19_2 0
x_4_20_0 0
x_4_20_1 0
x_4_20_2 0
x_4_21_0 0
x_4_21_1 0
x_4_21_2 0
x_4_22_0 0
x_4_22_1 0
x_4_22_2 0
x_4_23_0 0
x_4_23_1 0
x_4_23_2 0
x_4_24_0 0
x_4_24_1 0
x_4_24_2 0
x_4_25_0 0
x_4_25_1 0
x_4_25_2 0
x_4_26_0 0
x_4_26_1 0
x_4_26_2 0
x_4_27_0 0
x_4_27_1 0
x_4_27_2 0
x_4_28_0 0
x_4_28_1 0
x_4_28_2 0
x_4_29_0 0
x_4_29_1 0
x_4_29_2 0
x_4_30_0 0
x_4_30_1 0
x_4_30_2 0
x_4_31_0 0
x_4_31_1 0
x_4_31_2 0
x_4_32_0 0
x_4_32_1 0
x_4_32_2 0
x_4_33_0 0
x_4_33_1 0
x_4_33_2 0
x_4_34_0 0
x_4_34_1 0
x_4_34_2 0
x_4_35_0 0
x_4_35_1 0
x_4_35_2 0
x_4_36_0 0
x_4_36_1 0
x_4_36_2 0
x_4_37_0 0
x_4_37_1 0
x_4_37_2 0
x_4_38_0 0
x_4_38_1 0
x_4_38_2 0
x_4_39_0 0
x_4_39_1 0
x_4_39_2 0
x_4_40_0 0
x_4_40_1 0
x_4_40_2 0
x_5_6_0 0
x_5_6_1 0
x_5_6_2 0
x_5_7_0 1
x_5_7_1 0
x_5_7_2 0
x_5_8_0 0
x_5_8_1 0
x_5_8_2 0
x_5_9_0 0
x_5_9_1 0
x_5_9_2 0
x_5_10_0 0
x_5_10_1 0
x_5_10_2 0
x_5_11_0 0
x_5_11_1 0
x_5_11_2 0
x_5_12_0 0
x_5_12_1 0
x_5_12_2 0
x_5_13_0 0
x_5_13_1 0
x_5_13_2 0
x_5_14_0 0
x_5_14_1 0
x_5_14_2 0
x_5_15_0 0
x_5_15_1 0
x_5_15_2 0
x_5_16_0 0
x_5_16_1 0
x_5_16_2 0
x_5_17_0 0
x_5_17_1 0
x_5_17_2 0
x_5_18_0 0
x_5_18_1 0
x_5_18_2 0
x_5_19_0 0
x_5_19_1 0
x_5_19_2 0
x_5_20_0 0
x_5_20_1 0
x_5_20_2 0
x_5_21_0 0
x_5_21_1 0
x_5_21_2 0
x_5_22_0 0
x_5_22_1 0
x_5_22_2 0
x_5_23_0 0
x_5_23_1 0
x_5_23_2 0
x_5_24_0 0
x_5_24_1 0
x_5_24_2 0
x_5_25_0 0
x_5_25_1 0
x_5_25_2 0
x_5_26_0 0
x_5_26_1 0
x_5_26_2 0
x_5_27_0 0
x_5_27_1 0
x_5_27_2 0
x_5_28_0 0
x_5_28_1 0
x_5_28_2 0
x_5_29_0 0
x_5_29_1 0
x_5_29_2 0
x_5_30_0 0
x_5_30_1 0
x_5_30_2 0
x_5_31_0 0
x_5_31_1 0
x_5_31_2 0
x_5_32_0 0
x_5_32_1 0
x_5_32_2 0
x_5_33_0 0
x_5_33_1 0
x_5_33_2 0
x_5_34_0 0
x_5_34_1 0
x_5_34_2 0
x_5_35_0 0
x_5_35_1 0
x_5_35_2 0
x_5_36_0 0
x_5_36_1 0
x_5_36_2 0
x_5_37_0 0
x_5_37_1 0
x_5_37_2 0
x_5_38_0 0
x_5_38_1 0
x_5_38_2 0
x_5_39_0 0
x_5_39_1 0
x_5_39_2 0
x_5_40_0 0
x_5_40_1 0
x_5_40_2 0
x_6_7_0 0
x_6_7_1 0
x_6_7_2 0
x_6_8_0 0
x_6_8_1 0
x_6_8_2 0
x_6_9_0 0
x_6_9_1 1
x_6_9_2 0
x_6_10_0 0
x_6_10_1 0
x_6_10_2 0
x_6_11_0 0
x_6_11_1 0
x_6_11_2 0
x_6_12_0 0
x_6_12_1 0
x_6_12_2 0
x_6_13_0 0
x_6_13_1 0
x_6_13_2 0
x_6_14_0 0
x_6_14_1 0
x_6_14_2 0
x_6_15_0 0
x_6_15_1 0
x_6_15_2 0
x_6_16_0 0
x_6_16_1 0
x_6_16_2 0
x_6_17_0 0
x_6_17_1 0
x_6_17_2 0
x_6_18_0 0
x_6_18_1 0
x_6_18_2 0
x_6_19_0 0
x_6_19_1 0
x_6_19_2 0
x_6_20_0 0
x_6_20_1 0
x_6_20_2 0
x_6_21_0 0
x_6_21_1 0
x_6_21_2 0
x_6_22_0 0
x_6_22_1 0
x_6_22_2 0
x_6_23_0 0
x_6_23_1 0
x_6_23_2 0
x_6_24_0 0
x_6_24_1 0
x_6_24_2 0
x_6_25_0 0
x_6_25_1 0
x_6_25_2 0
x_6_26_0 0
x_6_26_1 0
x_6_26_2 0
x_6_27_0 0
x_6_27_1 0
x_6_27_2 0
x_6_28_0 0
x_6_28_1 0
x_6_28_2 0
x_6_29_0 0
x_6_29_1 0
x_6_29_2 0
x_6_30_0 0
x_6_30_1 0
x_6_30_2 0
x_6_31_0 0
x_6_31_1 0
x_6_31_2 0
x_6_32_0 0
x_6_32_1 0
x_6_32_2 0
x_6_33_0 0
x_6_33_1 0
x_6_33_2 0
x_6_34_0 0
x_6_34_1 0
x_6_34_2 0
x_6_35_0 0
x_6_35_1 0
x_6_35_2 0
x_6_36_0 0
x_6_36_1 0
x_6_36_2 0
x_6_37_0 0
x_6_37_1 0
x_6_37_2 0
x_6_38_0 0
x_6_38_1 0
x_6_38_2 0
x_6_39_0 0
x_6_39_1 0
x_6_39_2 0
x_6_40_0 0
x_6_40_1 0
x_6_40_2 0
x_7_8_0 0
x_7_8_1 0
x_7_8_2 0
x_7_9_0 0
x_7_9_1 0
x_7_9_2 0
x_7_10_0 1
x_7_10_1 0
x_7_10_2 0
x_7_11_0 0
x_7_11_1 0
x_7_11_2 0
x_7_12_0 0
x_7_12_1 0
x_7_12_2 0
x_7_13_0 0
x_7_13_1 0
x_7_13_2 0
x_7_14_0 0
x_7_14_1 0
x_7_14_2 0
x_7_15_0 0
x_7_15_1 0
x_7_15_2 0
x_7_16_0 0
x_7_16_1 0
x_7_16_2 0
x_7_17_0 0
x_7_17_1 0
x_7_17_2 0
x_7_18_0 0
x_7_18_1 0
x_7_18_2 0
x_7_19_0 0
x_7_19_1 0
x_7_19_2 0
x_7_20_0 0
x_7_20_1 0
x_7_20_2 0
x_7_21_0 0
x_7_21_1 0
x_7_21_2 0
x_7_22_0 0
x_7_22_1 0
x_7_22_2 0
x_7_23_0 0
x_7_23_1 0
x_7_23_2 0
x_7_24_0 0
x_7_24_1 0
x_7_24_2 0
x_7_25_0 0
x_7_25_1 0
x_7_25_2 0
x_7_26_0 0
x_7_26_1 0
x_7_26_2 0
x_7_27_0 0
x_7_27_1 0
x_7_27_2 0
x_7_28_0 0
x_7_28_1 0
x_7_28_2 0
x_7_29_0 0
x_7_29_1 0
x_7_29_2 0
x_7_30_0 0
x_7_30_1 0
x_7_30_2 0
x_7_31_0 0
x_7_31_1 0
x_7_31_2 0
x_7_32_0 0
x_7_32_1 0
x_7_32_2 0
x_7_33_0 0
x_7_33_1 0
x_7_33_2 0
x_7_34_0 0
x_7_34_1 0
x_7_34_2 0
x_7_35_0 0
x_7_35_1 0
x_7_35_2 0
x_7_36_0 0
x_7_36_1 0
x_7_36_2 0
x_7_37_0 0
x_7_37_1 0
x_7_37_2 0
x_7_38_0 0
x_7_38_1 0
x_7_38_2 0
x_7_39_0 0
x_7_39_1 0
x_7_39_2 0
x_7_40_0 0
x_7_40_1 0
x_7_40_2 0
x_8_9_0 0
x_8_9_1 0
x_8_9_2 0
x_8_10_0 0
x_8_10_1 0
x_8_10_2 0
x_8_11_0 1
x_8_11_1 0
x_8_11_2 0
x_8_12_0 0
x_8_12_1 0
x_8_12_2 0
x_8_13_0 0
x_8_13_1 0
x_8_13_2 0
x_8_14_0 0
x_8_14_1 0
x_8_14_2 0
x_8_15_0 0
x_8_15_1 0
x_8_15_2 0
x_8_16_0 0
x_8_16_1 0
x_8_16_2 0
x_8_17_0 0
x_8_17_1 0
x_8_17_2 0
x_8_18_0 0
x_8_18_1 0
x_8_18_2 0
x_8_19_0 0
x_8_19_1 0
x_8_19_2 0
x_8_20_0 0
x_8_20_1 0
x_8_20_2 0
x_8_21_0 0
x_8_21_1 0
x_8_21_2 0
x_8_22_0 0
x_8_22_1 0
x_8_22_2 0
x_8_23_0 0
x_8_23_1 0
x_8_23_2 0
x_8_24_0 0
x_8_24_1 0
x_8_24_2 0
x_8_25_0 0
x_8_25_1 0
x_8_25_2 0
x_8_26_0 0
x_8_26_1 0
x_8_26_2 0
x_8_27_0 0
x_8_27_1 0
x_8_27_2 0
x_8_28_0 0
x_8_28_1 0
x_8_28_2 0
x_8_29_0 0
x_8_29_1 0
x_8_29_2 0
x_8_30_0 0
x_8_30_1 0
x_8_30_2 0
x_8_31_0 0
x_8_31_1 0
x_8_31_2 0
x_8_32_0 0
x_8_32_1 0
x_8_32_2 0
x_8_33_0 0
x_8_33_1 0
x_8_33_2 0
x_8_34_0 0
x_8_34_1 0
x_8_34_2 0
x_8_35_0 0
x_8_35_1 0
x_8_35_2 0
x_8_36_0 0
x_8_36_1 0
x_8_36_2 0
x_8_37_0 0
x_8_37_1 0
x_8_37_2 0
x_8_38_0 0
x_8_38_1 0
x_8_38_2 0
x_8_39_0 0
x_8_39_1 0
x_8_39_2 0
x_8_40_0 0
x_8_40_1 0
x_8_40_2 0
x_9_10_0 0
x_9_10_1 0
x_9_10_2 0
x_9_11_0 0
x_9_11_1 0
x_9_11_2 0
x_9_12_0 0
x_9_12_1 0
x_9_12_2 0
x_9_13_0 0
x_9_13_1 0
x_9_13_2 0
x_9_14_0 0
x_9_14_1 0
x_9_14_2 0
x_9_15_0 0
x_9_15_1 0
x_9_15_2 0
x_9_16_0 0
x_9_16_1 0
x_9_16_2 0
x_9_17_0 0
x_9_17_1 0
x_9_17_2 0
x_9_18_0 0
x_9_18_1 0
x_9_18_2 0
x_9_19_0 0
x_9_19_1 0
x_9_19_2 0
x_9_20_0 0
x_9_20_1 0
x_9_20_2 0
x_9_21_0 0
x_9_21_1 1
x_9_21_2 0
x_9_22_0 0
x_9_22_1 0
x_9_22_2 0
x_9_23_0 0
x_9_23_1 0
x_9_23_2 0
x_9_24_0 0
x_9_24_1 0
x_9_24_2 0
x_9_25_0 0
x_9_25_1 0
x_9_25_2 0
x_9_26_0 0
x_9_26_1 0
x_9_26_2 0
x_9_27_0 0
x_9_27_1 0
x_9_27_2 0
x_9_28_0 0
x_9_28_1 0
x_9_28_2 0
x_9_29_0 0
x_9_29_1 0
x_9_29_2 0
x_9_30_0 0
x_9_30_1 0
x_9_30_2 0
x_9_31_0 0
x_9_31_1 0
x_9_31_2 0
x_9_32_0 0
x_9_32_1 0
x_9_32_2 0
x_9_33_0 0
x_9_33_1 0
x_9_33_2 0
x_9_34_0 0
x_9_34_1 0
x_9_34_2 0
x_9_35_0 0
x_9_35_1 0
x_9_35_2 0
x_9_36_0 0
x_9_36_1 0
x_9_36_2 0
x_9_37_0 0
x_9_37_1 0
x_9_37_2 0
x_9_38_0 0
x_9_38_1 0
x_9_38_2 0
x_9_39_0 0
x_9_39_1 0
x_9_39_2 0
x_9_40_0 0
x_9_40_1 0
x_9_40_2 0
x_10_11_0 0
x_10_11_1 0
x_10_11_2 0
x_10_12_0 0
x_10_12_1 0
x_10_12_2 0
x_10_13_0 0
x_10_13_1 0
x_10_13_2 0
x_10_14_0 1
x_10_14_1 0
x_10_14_2 0
x_10_15_0 0
x_10_15_1 0
x_10_15_2 0
x_10_16_0 0
x_10_16_1 0
x_10_16_2 0
x_10_17_0 0
x_10_17_1 0
x_10_17_2 0
x_10_18_0 0
x_10_18_1 0
x_10_18_2 0
x_10_19_0 0
x_10_19_1 0
x_10_19_2 0
x_10_20_0 0
x_10_20_1 0
x_10_20_2 0
x_10_21_0 0
x_10_21_1 0
x_10_21_2 0
x_10_22_0 0
x_10_22_1 0
x_10_22_2 0
x_10_23_0 0
x_10_23_1 0
x_10_23_2 0
x_10_24_0 0
x_10_24_1 0
x_10_24_2 0
x_10_25_0 0
x_10_25_1 0
x_10_25_2 0
x_10_26_0 0
x_10_26_1 0
x_10_26_2 0
x_10_27_0 0
x_10_27_1 0
x_10_27_2 0
x_10_28_0 0
x_10_28_1 0
x_10_28_2 0
x_10_29_0 0
x_10_29_1 0
x_10_29_2 0
x_10_30_0 0
x_10_30_1 0
x_10_30_2 0
x_10_31_0 0
x_10_31_1 0
x_10_31_2 0
x_10_32_0 0
x_10_32_1 0
x_10_32_2 0
x_10_33_0 0
x_10_33_1 0
x_10_33_2 0
x_10_34_0 0
x_10_34_1 0
x_10_34_2 0
x_10_35_0 0
x_10_35_1 0
x_10_35_2 0
x_10_36_0 0
x_10_36_1 0
x_10_36_2 0
x_10_37_0 0
x_10_37_1 0
x_10_37_2 0
x_10_38_0 0
x_10_38_1 0
x_10_38_2 0
x_10_39_0 0
x_10_39_1 0
x_10_39_2 0
x_10_40_0 0
x_10_40_1 0
x_10_40_2 0
x_11_12_0 0
x_11_12_1 0
x_11_12_2 0
x_11_13_0 0
x_11_13_1 0
x_11_13_2 0
x_11_14_0 0
x_11_14_1 0
x_11_14_2 0
x_11_15_0 0
x_11_15_1 0
x_11_15_2 0
x_11_16_0 1
x_11_16_1 0
x_11_16_2 0
x_11_17_0 0
x_11_17_1 0
x_11_17_2 0
x_11_18_0 0
x_11_18_1 0
x_11_18_2 0
x_11_19_0 0
x_11_19_1 0
x_11_19_2 0
x_11_20_0 0
x_11_20_1 0
x_11_20_2 0
x_11_21_0 0
x_11_21_1 0
x_11_21_2 0
x_11_22_0 0
x_11_22_1 0
x_11_22_2 0
x_11_23_0 0
x_11_23_1 0
x_11_23_2 0
x_11_24_0 0
x_11_24_1 0
x_11_24_2 0
x_11_25_0 0
x_11_25_1 0
x_11_25_2 0
x_11_26_0 0
x_11_26_1 0
x_11_26_2 0
x_11_27_0 0
x_11_27_1 0
x_11_27_2 0
x_11_28_0 0
x_11_28_1 0
x_11_28_2 0
x_11_29_0 0
x_11_29_1 0
x_11_29_2 0
x_11_30_0 0
x_11_30_1 0
x_11_30_2 0
x_11_31_0 0
x_11_31_1 0
x_11_31_2 0
x_11_32_0 0
x_11_32_1 0
x_11_32_2 0
x_11_33_0 0
x_11_33_1 0
x_11_33_2 0
x_11_34_0 0
x_11_34_1 0
x_11_34_2 0
x_11_35_0 0
x_11_35_1 0
x_11_35_2 0
x_11_36_0 0
x_11_36_1 0
x_11_36_2 0
x_11_37_0 0
x_11_37_1 0
x_11_37_2 0
x_11_38_0 0
x_11_38_1 0
x_11_38_2 0
x_11_39_0 0
x_11_39_1 0
x_11_39_2 0
x_11_40_0 0
x_11_40_1 0
x_11_40_2 0
x_12_13_0 0
x_12_13_1 0
x_12_13_2 0
x_12_14_0 0
x_12_14_1 0
x_12_14_2 0
x_12_15_0 0
x_12_15_1 0
x_12_15_2 0
x_12_16_0 0
x_12_16_1 0
x_12_16_2 0
x_12_17_0 0
x_12_17_1 1
x_12_17_2 0
x_12_18_0 0
x_12_18_1 0
x_12_18_2 0
x_12_19_0 0
x_12_19_1 0
x_12_19_2 0
x_12_20_0 0
x_12_20_1 0
x_12_20_2 0
x_12_21_0 0
x_12_21_1 0
x_12_21_2 0
x_12_22_0 0
x_12_22_1 0
x_12_22_2 0
x_12_23_0 0
x_12_23_1 0
x_12_23_2 0
x_12_24_0 0
x_12_24_1 0
x_12_24_2 0
x_12_25_0 0
x_12_25_1 0
x_12_25_2 0
x_12_26_0 0
x_12_26_1 0
x_12_26_2 0
x_12_27_0 0
x_12_27_1 0
x_12_27_2 0
x_12_28_0 0
x_12_28_1 0
x_12_28_2 0
x_12_29_0 0
x_12_29_1 0
x_12_29_2 0
x_12_30_0 0
x_12_30_1 0
x_12_30_2 0
x_12_31_0 0
x_12_31_1 0
x_12_31_2 0
x_12_32_0 0
x_12_32_1 0
x_12_32_2 0
x_12_33_0 0
x_12_33_1 0
x_12_33_2 0
x_12_34_0 0
x_12_34_1 0
x_12_34_2 0
x_12_35_0 0
x_12_35_1 0
x_12_35_2 0
x_12_36_0 0
x_12_36_1 0
x_12_36_2 0
x_12_37_0 0
x_12_37_1 0
x_12_37_2 0
x_12_38_0 0
x_12_38_1 0
x_12_38_2 0
x_12_39_0 0
x_12_39_1 0
x_12_39_2 0
x_12_40_0 0
x_12_40_1 0
x_12_40_2 0
x_13_14_0 0
x_13_14_1 1
x_13_14_2 0
x_13_15_0 0
x_13_15_1 0
x_13_15_2 0
x_13_16_0 0
x_13_16_1 0
x_13_16_2 0
x_13_17_0 0
x_13_17_1 0
x_13_17_2 0
x_13_18_0 0
x_13_18_1 0
x_13_18_2 0
x_13_19_0 0
x_13_19_1 1
x_13_19_2 0
x_13_20_0 0
x_13_20_1 0
x_13_20_2 0
x_13_21_0 0
x_13_21_1 0
x_13_21_2 0
x_13_22_0 0
x_13_22_1 0
x_13_22_2 0
x_13_23_0 0
x_13_23_1 0
x_13_23_2 0
x_13_24_0 0
x_13_24_1 0
x_13_24_2 0
x_13_25_0 0
x_13_25_1 0
x_13_25_2 0
x_13_26_0 0
x_13_26_1 0
x_13_26_2 0
x_13_27_0 0
x_13_27_1 0
x_13_27_2 0
x_13_28_0 0
x_13_28_1 0
x_13_28_2 0
x_13_29_0 0
x_13_29_1 0
x_13_29_2 0
x_13_30_0 0
x_13_30_1 0
x_13_30_2 0
x_13_31_0 0
x_13_31_1 0
x_13_31_2 0
x_13_32_0 0
x_13_32_1 0
x_13_32_2 0
x_13_33_0 0
x_13_33_1 0
x_13_33_2 0
x_13_34_0 0
x_13_34_1 0
x_13_34_2 0
x_13_35_0 0
x_13_35_1 0
x_13_35_2 0
x_13_36_0 0
x_13_36_1 0
x_13_36_2 0
x_13_37_0 0
x_13_37_1 0
x_13_37_2 0
x_13_38_0 0
x_13_38_1 0
x_13_38_2 0
x_13_39_0 0
x_13_39_1 0
x_13_39_2 0
x_13_40_0 0
x_13_40_1 0
x_13_40_2 0
x_14_15_0 1
x_14_15_1 0
x_14_15_2 0
x_14_16_0 0
x_14_16_1 0
x_14_16_2 0
x_14_17_0 0
x_14_17_1 0
x_14_17_2 0
x_14_18_0 0
x_14_18_1 0
x_14_18_2 0
x_14_19_0 0
x_14_19_1 0
x_14_19_2 0
x_14_20_0 0
x_14_20_1 0
x_14_20_2 0
x_14_21_0 0
x_14_21_1 0
x_14_21_2 0
x_14_22_0 0
x_14_22_1 0
x_14_22_2 0
x_14_23_0 0
x_14_23_1 1
x_14_23_2 0
x_14_24_0 0
x_14_24_1 0
x_14_24_2 0
x_14_25_0 0
x_14_25_1 0
x_14_25_2 0
x_14_26_0 0
x_14_26_1 0
x_14_26_2 0
x_14_27_0 0
x_14_27_1 0
x_14_27_2 0
x_14_28_0 0
x_14_28_1 0
x_14_28_2 0
x_14_29_0 0
x_14_29_1 0
x_14_29_2 0
x_14_30_0 0
x_14_30_1 0
x_14_30_2 0
x_14_31_0 0
x_14_31_1 0
x_14_31_2 0
x_14_32_0 0
x_14_32_1 0
x_14_32_2 0
x_14_33_0 0
x_14_33_1 0
x_14_33_2 0
x_14_34_0 0
x_14_34_1 0
x_14_34_2 0
x_14_35_0 0
x_14_35_1 0
x_14_35_2 0
x_14_36_0 0
x_14_36_1 0
x_14_36_2 0
x_14_37_0 0
x_14_37_1 0
x_14_37_2 0
x_14_38_0 0
x_14_38_1 0
x_14_38_2 0
x_14_39_0 0
x_14_39_1 0
x_14_39_2 0
x_14_40_0 0
x_14_40_1 0
x_14_40_2 0
x_15_16_0 0
x_15_16_1 0
x_15_16_2 0
x_15_17_0 0
x_15_17_1 0
x_15_17_2 0
x_15_18_0 0
x_15_18_1 0
x_15_18_2 0
x_15_19_0 0
x_15_19_1 0
x_15_19_2 0
x_15_20_0 0
x_15_20_1 0
x_15_20_2 0
x_15_21_0 0
x_15_21_1 0
x_15_21_2 0
x_15_22_0 0
x_15_22_1 0
x_15_22_2 0
x_15_23_0 0
x_15_23_1 0
x_15_23_2 0
x_15_24_0 0
x_15_24_1 0
x_15_24_2 0
x_15_25_0 0
x_15_25_1 0
x_15_25_2 0
x_15_26_0 0
x_15_26_1 0
x_15_26_2 0
x_15_27_0 1
x_15_27_1 0
x_15_27_2 0
x_15_28_0 0
x_15_28_1 0
x_15_28_2 0
x_15_29_0 0
x_15_29_1 0
x_15_29_2 0
x_15_30_0 0
x_15_30_1 0
x_15_30_2 0
x_15_31_0 0
x_15_31_1 0
x_15_31_2 0
x_15_32_0 0
x_15_32_1 0
x_15_32_2 0
x_15_33_0 0
x_15_33_1 0
x_15_33_2 0
x_15_34_0 0
x_15_34_1 0
x_15_34_2 0
x_15_35_0 0
x_15_35_1 0
x_15_35_2 0
x_15_36_0 0
x_15_36_1 0
x_15_36_2 0
x_15_37_0 0
x_15_37_1 0
x_15_37_2 0
x_15_38_0 0
x_15_38_1 0
x_15_38_2 0
x_15_39_0 0
x_15_39_1 0
x_15_39_2 0
x_15_40_0 0
x_15_40_1 0
x_15_40_2 0
x_16_17_0 0
x_16_17_1 0
x_16_17_2 0
x_16_18_0 0
x_16_18_1 0
x_16_18_2 0
x_16_19_0 0
x_16_19_1 0
x_16_19_2 0
x_16_20_0 0
x_16_20_1 0
x_16_20_2 0
x_16_21_0 0
x_16_21_1 0
x_16_21_2 0
x_16_22_0 0
x_16_22_1 0
x_16_22_2 0
x_16_23_0 1
x_16_23_1 0
x_16_23_2 0
x_16_24_0 0
x_16_24_1 0
x_16_24_2 0
x_16_25_0 0
x_16_25_1 0
x_16_25_2 0
x_16_26_0 0
x_16_26_1 0
x_16_26_2 0
x_16_27_0 0
x_16_27_1 0
x_16_27_2 0
x_16_28_0 0
x_16_28_1 0
x_16_28_2 0
x_16_29_0 0
x_16_29_1 0
x_16_29_2 0
x_16_30_0 0
x_16_30_1 0
x_16_30_2 0
x_16_31_0 0
x_16_31_1 0
x_16_31_2 0
x_16_32_0 0
x_16_32_1 0
x_16_32_2 0
x_16_33_0 0
x_16_33_1 0
x_16_33_2 0
x_16_34_0 0
x_16_34_1 0
x_16_34_2 0
x_16_35_0 0
x_16_35_1 0
x_16_35_2 0
x_16_36_0 0
x_16_36_1 0
x_16_36_2 0
x_16_37_0 0
x_16_37_1 0
x_16_37_2 0
x_16_38_0 0
x_16_38_1 0
x_16_38_2 0
x_16_39_0 0
x_16_39_1 0
x_16_39_2 0
x_16_40_0 0
x_16_40_1 0
x_16_40_2 0
x_17_18_0 0
x_17_18_1 0
x_17_18_2 0
x_17_19_0 0
x_17_19_1 0
x_17_19_2 0
x_17_20_0 0
x_17_20_1 0
x_17_20_2 0
x_17_21_0 0
x_17_21_1 0
x_17_21_2 0
x_17_22_0 0
x_17_22_1 0
x_17_22_2 0
x_17_23_0 0
x_17_23_1 0
x_17_23_2 0
x_17_24_0 0
x_17_24_1 0
x_17_24_2 0
x_17_25_0 0
x_17_25_1 0
x_17_25_2 0
x_17_26_0 0
x_17_26_1 1
x_17_26_2 0
x_17_27_0 0
x_17_27_1 0
x_17_27_2 0
x_17_28_0 0
x_17_28_1 0
x_17_28_2 0
x_17_29_0 0
x_17_29_1 0
x_17_29_2 0
x_17_30_0 0
x_17_30_1 0
x_17_30_2 0
x_17_31_0 0
x_17_31_1 0
x_17_31_2 0
x_17_32_0 0
x_17_32_1 0
x_17_32_2 0
x_17_33_0 0
x_17_33_1 0
x_17_33_2 0
x_17_34_0 0
x_17_34_1 0
x_17_34_2 0
x_17_35_0 0
x_17_35_1 0
x_17_35_2 0
x_17_36_0 0
x_17_36_1 0
x_17_36_2 0
x_17_37_0 0
x_17_37_1 0
x_17_37_2 0
x_17_38_0 0
x_17_38_1 0
x_17_38_2 0
x_17_39_0 0
x_17_39_1 0
x_17_39_2 0
x_17_40_0 0
x_17_40_1 0
x_17_40_2 0
x_18_19_0 0
x_18_19_1 1
x_18_19_2 0
x_18_20_0 0
x_18_20_1 0
x_18_20_2 0
x_18_21_0 0
x_18_21_1 0
x_18_21_2 0
x_18_22_0 0
x_18_22_1 1
x_18_22_2 0
x_18_23_0 0
x_18_23_1 0
x_18_23_2 0
x_18_24_0 0
x_18_24_1 0
x_18_24_2 0
x_18_25_0 0
x_18_25_1 0
x_18_25_2 0
x_18_26_0 0
x_18_26_1 0
x_18_26_2 0
x_18_27_0 0
x_18_27_1 0
x_18_27_2 0
x_18_28_0 0
x_18_28_1 0
x_18_28_2 0
x_18_29_0 0
x_18_29_1 0
x_18_29_2 0
x_18_30_0 0
x_18_30_1 0
x_18_30_2 0
x_18_31_0 0
x_18_31_1 0
x_18_31_2 0
x_18_32_0 0
x_18_32_1 0
x_18_32_2 0
x_18_33_0 0
x_18_33_1 0
x_18_33_2 0
x_18_34_0 0
x_18_34_1 0
x_18_34_2 0
x_18_35_0 0
x_18_35_1 0
x_18_35_2 0
x_18_36_0 0
x_18_36_1 0
x_18_36_2 0
x_18_37_0 0
x_18_37_1 0
x_18_37_2 0
x_18_38_0 0
x_18_38_1 0
x_18_38_2 0
x_18_39_0 0
x_18_39_1 0
x_18_39_2 0
x_18_40_0 0
x_18_40_1 0
x_18_40_2 0
x_19_20_0 0
x_19_20_1 0
x_19_20_2 0
x_19_21_0 0
x_19_21_1 0
x_19_21_2 0
x_19_22_0 0
x_19_22_1 0
x_19_22_2 0
x_19_23_0 0
x_19_23_1 0
x_19_23_2 0
x_19_24_0 0
x_19_24_1 0
x_19_24_2 0
x_19_25_0 0
x_19_25_1 0
x_19_25_2 0
x_19_26_0 0
x_19_26_1 0
x_19_26_2 0
x_19_27_0 0
x_19_27_1 0
x_19_27_2 0
x_19_28_0 0
x_19_28_1 0
x_19_28_2 0
x_19_29_0 0
x_19_29_1 0
x_19_29_2 0
x_19_30_0 0
x_19_30_1 0
x_19_30_2 0
x_19_31_0 0
x_19_31_1 0
x_19_31_2 0
x_19_32_0 0
x_19_32_1 0
x_19_32_2 0
x_19_33_0 0
x_19_33_1 0
x_19_33_2 0
x_19_34_0 0
x_19_34_1 0
x_19_34_2 0
x_19_35_0 0
x_19_35_1 0
x_19_35_2 0
x_19_36_0 0
x_19_36_1 0
x_19_36_2 0
x_19_37_0 0
x_19_37_1 0
x_19_37_2 0
x_19_38_0 0
x_19_38_1 0
x_19_38_2 0
x_19_39_0 0
x_19_39_1 0
x_19_39_2 0
x_19_40_0 0
x_19_40_1 0
x_19_40_2 0
x_20_21_0 0
x_20_21_1 1
x_20_21_2 0
x_20_22_0 0
x_20_22_1 1
x_20_22_2 0
x_20_23_0 0
x_20_23_1 0
x_20_23_2 0
x_20_24_0 0
x_20_24_1 0
x_20_24_2 0
x_20_25_0 0
x_20_25_1 0
x_20_25_2 0
x_20_26_0 0
x_20_26_1 0
x_20_26_2 0
x_20_27_0 0
x_20_27_1 0
x_20_27_2 0
x_20_28_0 0
x_20_28_1 0
x_20_28_2 0
x_20_29_0 0
x_20_29_1 0
x_20_29_2 0
x_20_30_0 0
x_20_30_1 0
x_20_30_2 0
x_20_31_0 0
x_20_31_1 0
x_20_31_2 0
x_20_32_0 0
x_20_32_1 0
x_20_32_2 0
x_20_33_0 0
x_20_33_1 0
x_20_33_2 0
x_20_34_0 0
x_20_34_1 0
x_20_34_2 0
x_20_35_0 0
x_20_35_1 0
x_20_35_2 0
x_20_36_0 0
x_20_36_1 0
x_20_36_2 0
x_20_37_0 0
x_20_37_1 0
x_20_37_2 0
x_20_38_0 0
x_20_38_1 0
x_20_38_2 0
x_20_39_0 0
x_20_39_1 0
x_20_39_2 0
x_20_40_0 0
x_20_40_1 0
x_20_40_2 0
x_21_22_0 0
x_21_22_1 0
x_21_22_2 0
x_21_23_0 0
x_21_23_1 0
x_21_23_2 0
x_21_24_0 0
x_21_24_1 0
x_21_24_2 0
x_21_25_0 0
x_21_25_1 0
x_21_25_2 0
x_21_26_0 0
x_21_26_1 0
x_21_26_2 0
x_21_27_0 0
x_21_27_1 0
x_21_27_2 0
x_21_28_0 0
x_21_28_1 0
x_21_28_2 0
x_21_29_0 0
x_21_29_1 0
x_21_29_2 0
x_21_30_0 0
x_21_30_1 0
x_21_30_2 0
x_21_31_0 0
x_21_31_1 0
x_21_31_2 0
x_21_32_0 0
x_21_32_1 0
x_21_32_2 0
x_21_33_0 0
x_21_33_1 0
x_21_33_2 0
x_21_34_0 0
x_21_34_1 0
x_21_34_2 0
x_21_35_0 0
x_21_35_1 0
x_21_35_2 0
x_21_36_0 0
x_21_36_1 0
x_21_36_2 0
x_21_37_0 0
x_21_37_1 0
x_21_37_2 0
x_21_38_0 0
x_21_38_1 0
x_21_38_2 0
x_21_39_0 0
x_21_39_1 0
x_21_39_2 0
x_21_40_0 0
x_21_40_1 0
x_21_40_2 0
x_22_23_0 0
x_22_23_1 0
x_22_23_2 0
x_22_24_0 0
x_22_24_1 0
x_22_24_2 0
x_22_25_0 0
x_22_25_1 0
x_22_25_2 0
x_22_26_0 0
x_22_26_1 0
x_22_26_2 0
x_22_27_0 0
x_22_27_1 0
x_22_27_2 0
x_22_28_0 0
x_22_28_1 0
x_22_28_2 0
x_22_29_0 0
x_22_29_1 0
x_22_29_2 0
x_22_30_0 0
x_22_30_1 0
x_22_30_2 0
x_22_31_0 0
x_22_31_1 0
x_22_31_2 0
x_22_32_0 0
x_22_32_1 0
x_22_32_2 0
x_22_33_0 0
x_22_33_1 0
x_22_33_2 0
x_22_34_0 0
x_22_34_1 0
x_22_34_2 0
x_22_35_0 0
x_22_35_1 0
x_22_35_2 0
x_22_36_0 0
x_22_36_1 0
x_22_36_2 0
x_22_37_0 0
x_22_37_1 0
x_22_37_2 0
x_22_38_0 0
x_22_38_1 0
x_22_38_2 0
x_22_39_0 0
x_22_39_1 0
x_22_39_2 0
x_22_40_0 0
x_22_40_1 0
x_22_40_2 0
x_23_24_0 0
x_23_24_1 1
x_23_24_2 0
x_23_25_0 0
x_23_25_1 0
x_23_25_2 0
x_23_26_0 0
x_23_26_1 0
x_23_26_2 0
x_23_27_0 0
x_23_27_1 0
x_23_27_2 0
x_23_28_0 0
x_23_28_1 0
x_23_28_2 0
x_23_29_0 0
x_23_29_1 0
x_23_29_2 0
x_23_30_0 1
x_23_30_1 0
x_23_30_2 0
x_23_31_0 0
x_23_31_1 0
x_23_31_2 0
x_23_32_0 0
x_23_32_1 0
x_23_32_2 0
x_23_33_0 0
x_23_33_1 0
x_23_33_2 0
x_23_34_0 0
x_23_34_1 0
x_23_34_2 0
x_23_35_0 0
x_23_35_1 0
x_23_35_2 0
x_23_36_0 0
x_23_36_1 0
x_23_36_2 0
x_23_37_0 0
x_23_37_1 0
x_23_37_2 0
x_23_38_0 0
x_23_38_1 0
x_23_38_2 0
x_23_39_0 0
x_23_39_1 0
x_23_39_2 0
x_23_40_0 0
x_23_40_1 0
x_23_40_2 0
x_24_25_0 0
x_24_25_1 0
x_24_25_2 0
x_24_26_0 0
x_24_26_1 0
x_24_26_2 0
x_24_27_0 0
x_24_27_1 0
x_24_27_2 0
x_24_28_0 0
x_24_28_1 1
x_24_28_2 0
x_24_29_0 0
x_24_29_1 0
x_24_29_2 0
x_24_30_0 0
x_24_30_1 0
x_24_30_2 0
x_24_31_0 0
x_24_31_1 0
x_24_31_2 0
x_24_32_0 0
x_24_32_1 0
x_24_32_2 0
x_24_33_0 0
x_24_33_1 0
x_24_33_2 0
x_24_34_0 0
x_24_34_1 0
x_24_34_2 0
x_24_35_0 0
x_24_35_1 0
x_24_35_2 0
x_24_36_0 0
x_24_36_1 0
x_24_36_2 0
x_24_37_0 0
x_24_37_1 0
x_24_37_2 0
x_24_38_0 0
x_24_38_1 0
x_24_38_2 0
x_24_39_0 0
x_24_39_1 0
x_24_39_2 0
x_24_40_0 0
x_24_40_1 0
x_24_40_2 0
x_25_26_0 0
x_25_26_1 0
x_25_26_2 0
x_25_27_0 0
x_25_27_1 0
x_25_27_2 0
x_25_28_0 0
x_25_28_1 0
x_25_28_2 0
x_25_29_0 0
x_25_29_1 0
x_25_29_2 0
x_25_30_0 0
x_25_30_1 0
x_25_30_2 0
x_25_31_0 0
x_25_31_1 1
x_25_31_2 0
x_25_32_0 0
x_25_32_1 1
x_25_32_2 0
x_25_33_0 0
x_25_33_1 0
x_25_33_2 0
x_25_34_0 0
x_25_34_1 0
x_25_34_2 0
x_25_35_0 0
x_25_35_1 0
x_25_35_2 0
x_25_36_0 0
x_25_36_1 0
x_25_36_2 0
x_25_37_0 0
x_25_37_1 0
x_25_37_2 0
x_25_38_0 0
x_25_38_1 0
x_25_38_2 0
x_25_39_0 0
x_25_39_1 0
x_25_39_2 0
x_25_40_0 0
x_25_40_1 0
x_25_40_2 0
x_26_27_0 0
x_26_27_1 0
x_26_27_2 0
x_26_28_0 0
x_26_28_1 0
x_26_28_2 0
x_26_29_0 0
x_26_29_1 0
x_26_29_2 0
x_26_30_0 0
x_26_30_1 0
x_26_30_2 0
x_26_31_0 0
x_26_31_1 0
x_26_31_2 0
x_26_32_0 0
x_26_32_1 1
x_26_32_2 0
x_26_33_0 0
x_26_33_1 0
x_26_33_2 0
x_26_34_0 0
x_26_34_1 0
x_26_34_2 0
x_26_35_0 0
x_26_35_1 0
x_26_35_2 0
x_26_36_0 0
x_26_36_1 0
x_26_36_2 0
x_26_37_0 0
x_26_37_1 0
x_26_37_2 0
x_26_38_0 0
x_26_38_1 0
x_26_38_2 0
x_26_39_0 0
x_26_39_1 0
x_26_39_2 0
x_26_40_0 0
x_26_40_1 0
x_26_40_2 0
x_27_28_0 0
x_27_28_1 0
x_27_28_2 0
x_27_29_0 0
x_27_29_1 0
x_27_29_2 0
x_27_30_0 1
x_27_30_1 0
x_27_30_2 0
x_27_31_0 0
x_27_31_1 0
x_27_31_2 0
x_27_32_0 0
x_27_32_1 0
x_27_32_2 0
x_27_33_0 0
x_27_33_1 0
x_27_33_2 0
x_27_34_0 0
x_27_34_1 0
x_27_34_2 0
x_27_35_0 0
x_27_35_1 0
x_27_35_2 0
x_27_36_0 0
x_27_36_1 0
x_27_36_2 0
x_27_37_0 0
x_27_37_1 0
x_27_37_2 0
x_27_38_0 0
x_27_38_1 0
x_27_38_2 0
x_27_39_0 0
x_27_39_1 0
x_27_39_2 0
x_27_40_0 0
x_27_40_1 0
x_27_40_2 0
x_28_29_0 0
x_28_29_1 1
x_28_29_2 0
x_28_30_0 0
x_28_30_1 0
x_28_30_2 0
x_28_31_0 0
x_28_31_1 0
x_28_31_2 0
x_28_32_0 0
x_28_32_1 0
x_28_32_2 0
x_28_33_0 0
x_28_33_1 0
x_28_33_2 0
x_28_34_0 0
x_28_34_1 0
x_28_34_2 0
x_28_35_0 0
x_28_35_1 0
x_28_35_2 0
x_28_36_0 0
x_28_36_1 0
x_28_36_2 0
x_28_37_0 0
x_28_37_1 0
x_28_37_2 0
x_28_38_0 0
x_28_38_1 0
x_28_38_2 0
x_28_39_0 0
x_28_39_1 0
x_28_39_2 0
x_28_40_0 0
x_28_40_1 0
x_28_40_2 0
x_29_30_0 0
x_29_30_1 0
x_29_30_2 0
x_29_31_0 0
x_29_31_1 0
x_29_31_2 0
x_29_32_0 0
x_29_32_1 0
x_29_32_2 0
x_29_33_0 0
x_29_33_1 1
x_29_33_2 0
x_29_34_0 0
x_29_34_1 0
x_29_34_2 0
x_29_35_0 0
x_29_35_1 0
x_29_35_2 0
x_29_36_0 0
x_29_36_1 0
x_29_36_2 0
x_29_37_0 0
x_29_37_1 0
x_29_37_2 0
x_29_38_0 0
x_29_38_1 0
x_29_38_2 0
x_29_39_0 0
x_29_39_1 0
x_29_39_2 0
x_29_40_0 0
x_29_40_1 0
x_29_40_2 0
x_30_31_0 0
x_30_31_1 0
x_30_31_2 0
x_30_32_0 0
x_30_32_1 0
x_30_32_2 0
x_30_33_0 0
x_30_33_1 0
x_30_33_2 0
x_30_34_0 0
x_30_34_1 0
x_30_34_2 0
x_30_35_0 0
x_30_35_1 0
x_30_35_2 0
x_30_36_0 0
x_30_36_1 0
x_30_36_2 0
x_30_37_0 0
x_30_37_1 0
x_30_37_2 0
x_30_38_0 0
x_30_38_1 0
x_30_38_2 0
x_30_39_0 0
x_30_39_1 0
x_30_39_2 0
x_30_40_0 0
x_30_40_1 0
x_30_40_2 0
x_31_32_0 0
x_31_32_1 0
x_31_32_2 0
x_31_33_0 0
x_31_33_1 0
x_31_33_2 0
x_31_34_0 0
x_31_34_1 0
x_31_34_2 0
x_31_35_0 0
x_31_35_1 0
x_31_35_2 0
x_31_36_0 0
x_31_36_1 0
x_31_36_2 0
x_31_37_0 0
x_31_37_1 1
x_31_37_2 0
x_31_38_0 0
x_31_38_1 0
x_31_38_2 0
x_31_39_0 0
x_31_39_1 0
x_31_39_2 0
x_31_40_0 0
x_31_40_1 0
x_31_40_2 0
x_32_33_0 0
x_32_33_1 0
x_32_33_2 0
x_32_34_0 0
x_32_34_1 0
x_32_34_2 0
x_32_35_0 0
x_32_35_1 0
x_32_35_2 0
x_32_36_0 0
x_32_36_1 0
x_32_36_2 0
x_32_37_0 0
x_32_37_1 0
x_32_37_2 0
x_32_38_0 0
x_32_38_1 0
x_32_38_2 0
x_32_39_0 0
x_32_39_1 0
x_32_39_2 0
x_32_40_0 0
x_32_40_1 0
x_32_40_2 0
x_33_34_0 0
x_33_34_1 0
x_33_34_2 0
x_33_35_0 0
x_33_35_1 1
x_33_35_2 0
x_33_36_0 0
x_33_36_1 0
x_33_36_2 0
x_33_37_0 0
x_33_37_1 0
x_33_37_2 0
x_33_38_0 0
x_33_38_1 0
x_33_38_2 0
x_33_39_0 0
x_33_39_1 0
x_33_39_2 0
x_33_40_0 0
x_33_40_1 0
x_33_40_2 0
x_34_35_0 0
x_34_35_1 0
x_34_35_2 0
x_34_36_0 0
x_34_36_1 1
x_34_36_2 0
x_34_37_0 0
x_34_37_1 0
x_34_37_2 0
x_34_38_0 0
x_34_38_1 0
x_34_38_2 0
x_34_39_0 0
x_34_39_1 1
x_34_39_2 0
x_34_40_0 0
x_34_40_1 0
x_34_40_2 0
x_35_36_0 0
x_35_36_1 1
x_35_36_2 0
x_35_37_0 0
x_35_37_1 0
x_35_37_2 0
x_35_38_0 0
x_35_38_1 0
x_35_38_2 0
x_35_39_0 0
x_35_39_1 0
x_35_39_2 0
x_35_40_0 0
x_35_40_1 0
x_35_40_2 0
x_36_37_0 0
x_36_37_1 0
x_36_37_2 0
x_36_38_0 0
x_36_38_1 0
x_36_38_2 0
x_36_39_0 0
x_36_39_1 0
x_36_39_2 0
x_36_40_0 0
x_36_40_1 0
x_36_40_2 0
x_37_38_0 0
x_37_38_1 1
x_37_38_2 0
x_37_39_0 0
x_37_39_1 0
x_37_39_2 0
x_37_40_0 0
x_37_40_1 0
x_37_40_2 0
x_38_39_0 0
x_38_39_1 0
x_38_39_2 0
x_38_40_0 0
x_38_40_1 1
x_38_40_2 0
x_39_40_0 0
x_39_40_1 1
x_39_40_2 0
